% Auto-generated by scripts/generate_dzn.py
% problem_type   = regex
% instance       = regex_13
% source_json    = instances_json/2_high_blowup/regex_13.json
% blowup         = 10.545454545454545
% representation = DFA

mode = 0;

var_count = 19;
Q = 116;
S = 3;
q0 = 1;
F = {73, 74, 75, 76, 77, 78, 79, 80, 81, 82, 83, 84, 85, 86, 87, 88, 89, 90, 91, 92, 93, 94, 95, 96, 97, 98, 99, 100, 101, 102, 103, 104, 105, 106, 107, 108, 109, 110, 111, 112, 113, 114, 115, 116};
d_dfa = array2d(1..116, 1..3, [
  1, 2, 1,
  1, 3, 1,
  1, 4, 1,
  5, 6, 5,
  7, 8, 7,
  9, 10, 9,
  11, 12, 11,
  11, 13, 11,
  14, 15, 14,
  16, 17, 16,
  18, 19, 18,
  18, 20, 18,
  18, 21, 18,
  22, 23, 22,
  22, 24, 22,
  25, 26, 25,
  27, 28, 27,
  29, 30, 29,
  29, 31, 29,
  29, 32, 29,
  33, 34, 33,
  35, 36, 35,
  35, 37, 35,
  35, 38, 35,
  39, 40, 39,
  39, 41, 39,
  42, 43, 42,
  44, 45, 44,
  46, 47, 46,
  46, 48, 46,
  46, 49, 46,
  50, 51, 50,
  52, 53, 52,
  54, 55, 54,
  56, 57, 56,
  56, 58, 56,
  56, 59, 56,
  60, 61, 60,
  62, 63, 62,
  62, 64, 62,
  62, 65, 62,
  66, 67, 66,
  66, 68, 66,
  69, 70, 69,
  71, 72, 71,
  73, 74, 73,
  73, 75, 73,
  73, 76, 73,
  77, 78, 77,
  79, 80, 79,
  81, 82, 81,
  83, 84, 83,
  83, 85, 83,
  86, 87, 86,
  88, 89, 88,
  90, 91, 90,
  90, 92, 90,
  90, 93, 90,
  94, 95, 94,
  96, 97, 96,
  98, 99, 98,
  100, 101, 100,
  100, 102, 100,
  100, 103, 100,
  104, 105, 104,
  106, 107, 106,
  106, 108, 106,
  106, 109, 106,
  110, 111, 110,
  110, 112, 110,
  113, 114, 113,
  115, 116, 115,
  1, 2, 1,
  1, 3, 1,
  1, 4, 1,
  5, 6, 5,
  7, 8, 7,
  9, 10, 9,
  11, 12, 11,
  11, 13, 11,
  14, 15, 14,
  16, 17, 16,
  18, 19, 18,
  18, 20, 18,
  18, 21, 18,
  22, 23, 22,
  22, 24, 22,
  25, 26, 25,
  27, 28, 27,
  73, 74, 73,
  73, 75, 73,
  73, 76, 73,
  77, 78, 77,
  79, 80, 79,
  81, 82, 81,
  83, 84, 83,
  83, 85, 83,
  86, 87, 86,
  88, 89, 88,
  90, 91, 90,
  90, 92, 90,
  90, 93, 90,
  94, 95, 94,
  96, 97, 96,
  98, 99, 98,
  100, 101, 100,
  100, 102, 100,
  100, 103, 100,
  104, 105, 104,
  106, 107, 106,
  106, 108, 106,
  106, 109, 106,
  110, 111, 110,
  110, 112, 110,
  113, 114, 113,
  115, 116, 115
]);
d_nfa = array2d(1..116, 1..3, [
  {}, {}, {},
  {}, {}, {},
  {}, {}, {},
  {}, {}, {},
  {}, {}, {},
  {}, {}, {},
  {}, {}, {},
  {}, {}, {},
  {}, {}, {},
  {}, {}, {},
  {}, {}, {},
  {}, {}, {},
  {}, {}, {},
  {}, {}, {},
  {}, {}, {},
  {}, {}, {},
  {}, {}, {},
  {}, {}, {},
  {}, {}, {},
  {}, {}, {},
  {}, {}, {},
  {}, {}, {},
  {}, {}, {},
  {}, {}, {},
  {}, {}, {},
  {}, {}, {},
  {}, {}, {},
  {}, {}, {},
  {}, {}, {},
  {}, {}, {},
  {}, {}, {},
  {}, {}, {},
  {}, {}, {},
  {}, {}, {},
  {}, {}, {},
  {}, {}, {},
  {}, {}, {},
  {}, {}, {},
  {}, {}, {},
  {}, {}, {},
  {}, {}, {},
  {}, {}, {},
  {}, {}, {},
  {}, {}, {},
  {}, {}, {},
  {}, {}, {},
  {}, {}, {},
  {}, {}, {},
  {}, {}, {},
  {}, {}, {},
  {}, {}, {},
  {}, {}, {},
  {}, {}, {},
  {}, {}, {},
  {}, {}, {},
  {}, {}, {},
  {}, {}, {},
  {}, {}, {},
  {}, {}, {},
  {}, {}, {},
  {}, {}, {},
  {}, {}, {},
  {}, {}, {},
  {}, {}, {},
  {}, {}, {},
  {}, {}, {},
  {}, {}, {},
  {}, {}, {},
  {}, {}, {},
  {}, {}, {},
  {}, {}, {},
  {}, {}, {},
  {}, {}, {},
  {}, {}, {},
  {}, {}, {},
  {}, {}, {},
  {}, {}, {},
  {}, {}, {},
  {}, {}, {},
  {}, {}, {},
  {}, {}, {},
  {}, {}, {},
  {}, {}, {},
  {}, {}, {},
  {}, {}, {},
  {}, {}, {},
  {}, {}, {},
  {}, {}, {},
  {}, {}, {},
  {}, {}, {},
  {}, {}, {},
  {}, {}, {},
  {}, {}, {},
  {}, {}, {},
  {}, {}, {},
  {}, {}, {},
  {}, {}, {},
  {}, {}, {},
  {}, {}, {},
  {}, {}, {},
  {}, {}, {},
  {}, {}, {},
  {}, {}, {},
  {}, {}, {},
  {}, {}, {},
  {}, {}, {},
  {}, {}, {},
  {}, {}, {},
  {}, {}, {},
  {}, {}, {},
  {}, {}, {},
  {}, {}, {},
  {}, {}, {},
  {}, {}, {},
  {}, {}, {},
  {}, {}, {}
]);
